(set-info :source |printed by MathSAT|)
(declare-fun |!{$(in_main#0)<SIZE>}| () Int)
(declare-fun |!{$(in_main#0)<SIZE>}.next| () Int)
(declare-fun |!{$(in_main#0)<i>}| () Int)
(declare-fun |!{$(in_main#0)<i>}.next| () Int)
(declare-fun |!{$(in_main#0)<x>}| () Int)
(declare-fun |!{$(in_main#0)<x>}.next| () Int)
(declare-fun |!{$(in_main#0)<a.1>}| () (Array Int Int))
(declare-fun |!{$(in_main#0)<a.1>}.next| () (Array Int Int))
(declare-fun |!{$(in_main#0)<$(in___VERIFIER_nondet_int#0)<h#<__VERIFIER_nondet_int.return>>>}| () Int)
(declare-fun !pc () Int)
(declare-fun !pc.next () Int)
(declare-fun |%{$(in_main#0)<x>}#1| () Int)
(declare-fun |%{$(in_main#0)<a.1>}#1| () (Array Int Int))
(define-fun .def_25 () Int (! !pc :next !pc.next))
(define-fun .def_28 () Bool (! (= .def_25 2) :init true))
(define-fun .def_123 () Bool (= .def_25 23))
(define-fun .def_92 () Bool (= !pc.next 36))
(define-fun .def_126 () Bool (and .def_92 .def_123))
(define-fun .def_119 () Bool (= |!{$(in_main#0)<x>}.next| 1))
(define-fun .def_10 () Int (! |!{$(in_main#0)<i>}| :next |!{$(in_main#0)<i>}.next|))
(define-fun .def_67 () Bool (= .def_10 |!{$(in_main#0)<i>}.next|))
(define-fun .def_8 () Int (! |!{$(in_main#0)<SIZE>}| :next |!{$(in_main#0)<SIZE>}.next|))
(define-fun .def_65 () Bool (= .def_8 |!{$(in_main#0)<SIZE>}.next|))
(define-fun .def_74 () Bool (and .def_65 .def_67))
(define-fun .def_120 () Bool (and .def_74 .def_119))
(define-fun .def_14 () (Array Int Int) (! |!{$(in_main#0)<a.1>}| :next |!{$(in_main#0)<a.1>}.next|))
(define-fun .def_71 () Bool (= .def_14 |!{$(in_main#0)<a.1>}.next|))
(define-fun .def_121 () Bool (and .def_71 .def_120))
(define-fun .def_103 () Bool (<= .def_8 .def_10))
(define-fun .def_122 () Bool (and .def_103 .def_121))
(define-fun .def_127 () Bool (and .def_122 .def_126))
(define-fun .def_49 () Bool (= !pc.next 23))
(define-fun .def_124 () Bool (and .def_49 .def_123))
(define-fun .def_105 () Int (+ .def_10 (- 1)))
(define-fun .def_106 () Int (select .def_14 .def_105))
(define-fun .def_108 () Int (+ .def_106 1))
(define-fun .def_109 () (Array Int Int) (store .def_14 .def_10 .def_108))
(define-fun .def_116 () Bool (= |!{$(in_main#0)<a.1>}.next| .def_109))
(define-fun .def_111 () Int (* (- 1) |!{$(in_main#0)<i>}.next|))
(define-fun .def_112 () Int (+ .def_10 .def_111))
(define-fun .def_113 () Bool (= .def_112 (- 1)))
(define-fun .def_114 () Bool (and .def_65 .def_113))
(define-fun .def_12 () Int (! |!{$(in_main#0)<x>}| :next |!{$(in_main#0)<x>}.next|))
(define-fun .def_69 () Bool (= .def_12 |!{$(in_main#0)<x>}.next|))
(define-fun .def_115 () Bool (and .def_69 .def_114))
(define-fun .def_117 () Bool (and .def_115 .def_116))
(define-fun .def_104 () Bool (not .def_103))
(define-fun .def_118 () Bool (and .def_104 .def_117))
(define-fun .def_125 () Bool (and .def_118 .def_124))
(define-fun .def_128 () Bool (or .def_125 .def_127))
(define-fun .def_96 () Bool (= !pc.next 0))
(define-fun .def_87 () Bool (= .def_25 36))
(define-fun .def_97 () Bool (and .def_87 .def_96))
(define-fun .def_52 () Bool (<= .def_8 .def_12))
(define-fun .def_82 () Bool (and .def_52 .def_65))
(define-fun .def_83 () Bool (and .def_67 .def_82))
(define-fun .def_84 () Bool (and .def_69 .def_83))
(define-fun .def_85 () Bool (and .def_71 .def_84))
(define-fun .def_98 () Bool (and .def_85 .def_97))
(define-fun .def_93 () Bool (and .def_87 .def_92))
(define-fun .def_75 () Int (* (- 1) |!{$(in_main#0)<x>}.next|))
(define-fun .def_76 () Int (+ .def_12 .def_75))
(define-fun .def_77 () Bool (= .def_76 (- 1)))
(define-fun .def_78 () Bool (and .def_74 .def_77))
(define-fun .def_79 () Bool (and .def_71 .def_78))
(define-fun .def_54 () Int (select .def_14 .def_12))
(define-fun .def_56 () Int (+ .def_12 (- 1)))
(define-fun .def_57 () Int (select .def_14 .def_56))
(define-fun .def_58 () Bool (<= .def_57 .def_54))
(define-fun .def_59 () Int (ite .def_58 1 0))
(define-fun .def_60 () Bool (= .def_59 0))
(define-fun .def_61 () Bool (not .def_60))
(define-fun .def_80 () Bool (and .def_61 .def_79))
(define-fun .def_53 () Bool (not .def_52))
(define-fun .def_81 () Bool (and .def_53 .def_80))
(define-fun .def_94 () Bool (and .def_81 .def_93))
(define-fun .def_89 () Bool (= !pc.next 56))
(define-fun .def_90 () Bool (and .def_87 .def_89))
(define-fun .def_66 () Bool (and .def_60 .def_65))
(define-fun .def_68 () Bool (and .def_66 .def_67))
(define-fun .def_70 () Bool (and .def_68 .def_69))
(define-fun .def_72 () Bool (and .def_70 .def_71))
(define-fun .def_73 () Bool (and .def_53 .def_72))
(define-fun .def_91 () Bool (and .def_73 .def_90))
(define-fun .def_95 () Bool (or .def_91 .def_94))
(define-fun .def_99 () Bool (or .def_95 .def_98))
(define-fun .def_50 () Bool (and .def_28 .def_49))
(define-fun .def_40 () (Array Int Int) (store |%{$(in_main#0)<a.1>}#1| 0 7))
(define-fun .def_46 () Bool (= |!{$(in_main#0)<a.1>}.next| .def_40))
(define-fun .def_44 () Bool (= |!{$(in_main#0)<x>}.next| |%{$(in_main#0)<x>}#1|))
(define-fun .def_42 () Bool (= |!{$(in_main#0)<i>}.next| 1))
(define-fun .def_41 () Bool (= |!{$(in_main#0)<SIZE>}.next| |!{$(in_main#0)<$(in___VERIFIER_nondet_int#0)<h#<__VERIFIER_nondet_int.return>>>}|))
(define-fun .def_43 () Bool (and .def_41 .def_42))
(define-fun .def_45 () Bool (and .def_43 .def_44))
(define-fun .def_47 () Bool (and .def_45 .def_46))
(define-fun .def_51 () Bool (and .def_47 .def_50))
(define-fun .def_100 () Bool (or .def_51 .def_99))
(define-fun .def_129 () Bool (! (or .def_100 .def_128) :trans true))
(define-fun .def_101 () Bool (= .def_25 56))
(define-fun .def_130 () Bool (! (not .def_101) :invar-property 0 :invar-property-name ||))
(assert true)
